certificates/rado_a9_c219_N26.cnf
c Rad2 upper bound instance: x1 + 9*x2 - x3 = 219, interval [1,26]
p cnf 26 146
1 7 25 0
-1 -7 -25 0
1 16 26 0
-1 -16 -26 0
2 8 25 0
-2 -8 -25 0
2 17 26 0
-2 -17 -26 0
3 9 25 0
-3 -9 -25 0
3 18 26 0
-3 -18 -26 0
1 4 24 0
-1 -4 -24 0
4 10 25 0
-4 -10 -25 0
4 19 26 0
-4 -19 -26 0
2 5 24 0
-2 -5 -24 0
5 11 25 0
-5 -11 -25 0
5 20 26 0
-5 -20 -26 0
3 6 24 0
-3 -6 -24 0
6 12 25 0
-6 -12 -25 0
6 21 26 0
-6 -21 -26 0
4 7 24 0
-4 -7 -24 0
7 13 25 0
-7 -13 -25 0
7 22 26 0
-7 -22 -26 0
5 8 24 0
-5 -8 -24 0
8 14 25 0
-8 -14 -25 0
8 23 26 0
-8 -23 -26 0
6 9 24 0
-6 -9 -24 0
9 15 25 0
-9 -15 -25 0
9 24 26 0
-9 -24 -26 0
7 10 24 0
-7 -10 -24 0
10 16 25 0
-10 -16 -25 0
10 25 26 0
-10 -25 -26 0
8 11 24 0
-8 -11 -24 0
11 17 25 0
-11 -17 -25 0
11 26 0
-11 -26 0
9 12 24 0
-9 -12 -24 0
12 18 25 0
-12 -18 -25 0
1 13 23 0
-1 -13 -23 0
10 13 24 0
-10 -13 -24 0
13 19 25 0
-13 -19 -25 0
2 14 23 0
-2 -14 -23 0
11 14 24 0
-11 -14 -24 0
14 20 25 0
-14 -20 -25 0
3 15 23 0
-3 -15 -23 0
12 15 24 0
-12 -15 -24 0
15 21 25 0
-15 -21 -25 0
4 16 23 0
-4 -16 -23 0
13 16 24 0
-13 -16 -24 0
16 22 25 0
-16 -22 -25 0
5 17 23 0
-5 -17 -23 0
14 17 24 0
-14 -17 -24 0
17 23 25 0
-17 -23 -25 0
6 18 23 0
-6 -18 -23 0
15 18 24 0
-15 -18 -24 0
18 24 25 0
-18 -24 -25 0
7 19 23 0
-7 -19 -23 0
16 19 24 0
-16 -19 -24 0
19 25 0
-19 -25 0
8 20 23 0
-8 -20 -23 0
17 20 24 0
-17 -20 -24 0
20 25 26 0
-20 -25 -26 0
9 21 23 0
-9 -21 -23 0
18 21 24 0
-18 -21 -24 0
1 22 0
-1 -22 0
10 22 23 0
-10 -22 -23 0
19 22 24 0
-19 -22 -24 0
2 22 23 0
-2 -22 -23 0
11 23 0
-11 -23 0
20 23 24 0
-20 -23 -24 0
3 22 24 0
-3 -22 -24 0
12 23 24 0
-12 -23 -24 0
21 24 0
-21 -24 0
4 22 25 0
-4 -22 -25 0
13 23 25 0
-13 -23 -25 0
22 24 25 0
-22 -24 -25 0
5 22 26 0
-5 -22 -26 0
14 23 26 0
-14 -23 -26 0
23 24 26 0
-23 -24 -26 0
