certificates/rado_a9_c219_N26.drat
-26 0
11 0
-23 0
8 0
14 0
24 0
-5 0
0
